Gurobi 12.0.1:   lim:time = 28800
  mip:bestbound = 1
Set parameter LogToConsole to value 1
  tech:outlev = 1
Set parameter InfUnbdInfo to value 1
Gurobi Optimizer version 12.0.1 build v12.0.1rc0 (win64 - Windows 11.0 (22631.2))

CPU model: Intel(R) Core(TM) i7-10700 CPU @ 2.90GHz, instruction set [SSE2|AVX|AVX2]
Thread count: 8 physical cores, 16 logical processors, using up to 16 threads

Non-default parameters:
TimeLimit  28800
InfUnbdInfo  1

Optimize a model with 342 rows, 675 columns and 4342 nonzeros
Model fingerprint: 0x944a6f96
Model has 7 quadratic constraints
Variable types: 18 continuous, 657 integer (0 binary)
Coefficient statistics:
  Matrix range     [1e+00, 1e+05]
  QMatrix range    [9e+00, 2e+01]
  QLMatrix range   [3e+00, 2e+01]
  Objective range  [2e+01, 4e+02]
  Bounds range     [1e+00, 1e+00]
  RHS range        [1e+00, 1e+05]
  QRHS range       [6e+01, 1e+02]
Presolve removed 70 rows and 26 columns
Presolve time: 0.01s
Presolved: 485 rows, 859 columns, 4588 nonzeros
Variable types: 14 continuous, 845 integer (845 binary)

Root relaxation: objective 8.648879e+02, 85 iterations, 0.00 seconds (0.00 work units)

    Nodes    |    Current Node    |     Objective Bounds      |     Work
 Expl Unexpl |  Obj  Depth IntInf | Incumbent    BestBd   Gap | It/Node Time

     0     0  864.88794    0   26          -  864.88794      -     -    0s
H    0     0                    1676.3100000  864.88794  48.4%     -    0s
H    0     0                    1292.2500000  864.88794  33.1%     -    0s
     0     0  951.31332    0   27 1292.25000  951.31332  26.4%     -    0s
     0     0  999.55500    0   24 1292.25000  999.55500  22.7%     -    0s
     0     0  999.55500    0   31 1292.25000  999.55500  22.7%     -    0s
H    0     0                    1199.1900000  999.55500  16.6%     -    0s
H    0     0                    1123.6500000 1020.45000  9.18%     -    0s
     0     0 1020.45000    0   30 1123.65000 1020.45000  9.18%     -    0s
H    0     0                    1042.0800000 1020.45000  2.08%     -    0s
     0     0 1020.45000    0   29 1042.08000 1020.45000  2.08%     -    0s
     0     0 1020.45000    0   23 1042.08000 1020.45000  2.08%     -    0s
     0     0 1020.45000    0   23 1042.08000 1020.45000  2.08%     -    0s
     0     0 1020.45000    0   29 1042.08000 1020.45000  2.08%     -    0s
     0     0 1020.45000    0   27 1042.08000 1020.45000  2.08%     -    0s
     0     0 1020.45000    0   27 1042.08000 1020.45000  2.08%     -    0s
     0     0 1020.45000    0   19 1042.08000 1020.45000  2.08%     -    0s
     0     0 1023.39000    0   27 1042.08000 1023.39000  1.79%     -    0s
     0     0 1023.39000    0   28 1042.08000 1023.39000  1.79%     -    0s
     0     0 1023.39000    0   23 1042.08000 1023.39000  1.79%     -    0s
     0     0 1023.39000    0   23 1042.08000 1023.39000  1.79%     -    0s
     0     0 1023.39000    0   25 1042.08000 1023.39000  1.79%     -    0s
     0     0 1023.39000    0   27 1042.08000 1023.39000  1.79%     -    0s
     0     0 1023.39000    0   27 1042.08000 1023.39000  1.79%     -    0s
     0     0 1023.39000    0   26 1042.08000 1023.39000  1.79%     -    0s
     0     0 1023.39000    0   22 1042.08000 1023.39000  1.79%     -    0s
     0     0 1023.39000    0   22 1042.08000 1023.39000  1.79%     -    0s
     0     0 1023.39000    0   18 1042.08000 1023.39000  1.79%     -    0s
     0     0 1023.39000    0   22 1042.08000 1023.39000  1.79%     -    0s
     0     0 1023.39000    0   18 1042.08000 1023.39000  1.79%     -    0s
     0     0 1023.39000    0   22 1042.08000 1023.39000  1.79%     -    0s
     0     0 1023.39000    0   22 1042.08000 1023.39000  1.79%     -    0s
     0     2 1023.39000    0   22 1042.08000 1023.39000  1.79%     -    0s

Cutting planes:
  Learned: 3
  Gomory: 2
  Cover: 2
  Implied bound: 13
  Clique: 6
  MIR: 6
  Zero half: 1
  RLT: 18

Explored 81 nodes (1375 simplex iterations) in 0.60 seconds (0.13 work units)
Thread count was 16 (of 16 available processors)

Solution count 6: 1042.08 1042.08 1123.65 ... 1676.31

Optimal solution found (tolerance 1.00e-04)
Best objective 1.042080000000e+03, best bound 1.042080000000e+03, gap 0.0000%

AMPL MP initial flat model has 675 variables (0 integer, 657 binary);
Objectives: 1 linear; 
Constraints:  342 linear; 7 quadratic;

AMPL MP final model has 675 variables (0 integer, 657 binary);
Objectives: 1 linear; 
Constraints:  342 linear; 7 quadratic;


-----RESULTS INFO-----
running_time:  0.719
TC.best_bound:  1042.08
TC:  1042.08
MIP Gap (%):  0
=== Vehicle Routes ===
Vehicle 1: 0 → 2
Vehicle 1: 2 → 0
Vehicle 2: 0 → 18
Vehicle 2: 1 → 15
Vehicle 2: 3 → 1
Vehicle 2: 4 → 16
Vehicle 2: 5 → 4
Vehicle 2: 12 → 0
Vehicle 2: 15 → 5
Vehicle 2: 16 → 12
Vehicle 2: 18 → 3
Vehicle 3: 0 → 14
Vehicle 3: 14 → 0

=== Full Vehicle Routes ===
Vehicle 1: 0 → 2 → 0
Vehicle 2: 0 → 18 → 3 → 1 → 15 → 5 → 4 → 16 → 12 → 0
Vehicle 3: 0 → 14 → 0
Customer assigment to PL: u variables:
6 18
7 16
8 14
9 15
10 16
11 14
13 15
Node is served by regular vehicle: g variables:
1
2
3
4
5
12
16
18
14
15
Customer assigment to Home delivery: gm variables:
1
2
3
4
5
12
Customer's demand delivered to PL: l variables:
6
7
8
9
10
11
13
